p cnf 210 2122
1 2 3 4 5 6 7 0
8 9 10 11 12 13 14 0
15 16 17 18 19 20 21 0
22 23 24 25 26 27 28 0
29 30 31 32 33 34 35 0
36 37 38 39 40 41 42 0
43 44 45 46 47 48 49 0
50 51 52 53 54 55 56 0
57 58 59 60 61 62 63 0
64 65 66 67 68 69 70 0
71 72 73 74 75 76 77 0
78 79 80 81 82 83 84 0
85 86 87 88 89 90 91 0
92 93 94 95 96 97 98 0
99 100 101 102 103 104 105 0
106 107 108 109 110 111 112 0
113 114 115 116 117 118 119 0
120 121 122 123 124 125 126 0
127 128 129 130 131 132 133 0
134 135 136 137 138 139 140 0
141 142 143 144 145 146 147 0
148 149 150 151 152 153 154 0
155 156 157 158 159 160 161 0
162 163 164 165 166 167 168 0
169 170 171 172 173 174 175 0
176 177 178 179 180 181 182 0
183 184 185 186 187 188 189 0
190 191 192 193 194 195 196 0
197 198 199 200 201 202 203 0
204 205 206 207 208 209 210 0
-1 -2 0
-1 -3 0
-1 -4 0
-1 -5 0
-1 -6 0
-1 -7 0
-2 -3 0
-2 -4 0
-2 -5 0
-2 -6 0
-2 -7 0
-3 -4 0
-3 -5 0
-3 -6 0
-3 -7 0
-4 -5 0
-4 -6 0
-4 -7 0
-5 -6 0
-5 -7 0
-6 -7 0
-8 -9 0
-8 -10 0
-8 -11 0
-8 -12 0
-8 -13 0
-8 -14 0
-9 -10 0
-9 -11 0
-9 -12 0
-9 -13 0
-9 -14 0
-10 -11 0
-10 -12 0
-10 -13 0
-10 -14 0
-11 -12 0
-11 -13 0
-11 -14 0
-12 -13 0
-12 -14 0
-13 -14 0
-15 -16 0
-15 -17 0
-15 -18 0
-15 -19 0
-15 -20 0
-15 -21 0
-16 -17 0
-16 -18 0
-16 -19 0
-16 -20 0
-16 -21 0
-17 -18 0
-17 -19 0
-17 -20 0
-17 -21 0
-18 -19 0
-18 -20 0
-18 -21 0
-19 -20 0
-19 -21 0
-20 -21 0
-22 -23 0
-22 -24 0
-22 -25 0
-22 -26 0
-22 -27 0
-22 -28 0
-23 -24 0
-23 -25 0
-23 -26 0
-23 -27 0
-23 -28 0
-24 -25 0
-24 -26 0
-24 -27 0
-24 -28 0
-25 -26 0
-25 -27 0
-25 -28 0
-26 -27 0
-26 -28 0
-27 -28 0
-29 -30 0
-29 -31 0
-29 -32 0
-29 -33 0
-29 -34 0
-29 -35 0
-30 -31 0
-30 -32 0
-30 -33 0
-30 -34 0
-30 -35 0
-31 -32 0
-31 -33 0
-31 -34 0
-31 -35 0
-32 -33 0
-32 -34 0
-32 -35 0
-33 -34 0
-33 -35 0
-34 -35 0
-36 -37 0
-36 -38 0
-36 -39 0
-36 -40 0
-36 -41 0
-36 -42 0
-37 -38 0
-37 -39 0
-37 -40 0
-37 -41 0
-37 -42 0
-38 -39 0
-38 -40 0
-38 -41 0
-38 -42 0
-39 -40 0
-39 -41 0
-39 -42 0
-40 -41 0
-40 -42 0
-41 -42 0
-43 -44 0
-43 -45 0
-43 -46 0
-43 -47 0
-43 -48 0
-43 -49 0
-44 -45 0
-44 -46 0
-44 -47 0
-44 -48 0
-44 -49 0
-45 -46 0
-45 -47 0
-45 -48 0
-45 -49 0
-46 -47 0
-46 -48 0
-46 -49 0
-47 -48 0
-47 -49 0
-48 -49 0
-50 -51 0
-50 -52 0
-50 -53 0
-50 -54 0
-50 -55 0
-50 -56 0
-51 -52 0
-51 -53 0
-51 -54 0
-51 -55 0
-51 -56 0
-52 -53 0
-52 -54 0
-52 -55 0
-52 -56 0
-53 -54 0
-53 -55 0
-53 -56 0
-54 -55 0
-54 -56 0
-55 -56 0
-57 -58 0
-57 -59 0
-57 -60 0
-57 -61 0
-57 -62 0
-57 -63 0
-58 -59 0
-58 -60 0
-58 -61 0
-58 -62 0
-58 -63 0
-59 -60 0
-59 -61 0
-59 -62 0
-59 -63 0
-60 -61 0
-60 -62 0
-60 -63 0
-61 -62 0
-61 -63 0
-62 -63 0
-64 -65 0
-64 -66 0
-64 -67 0
-64 -68 0
-64 -69 0
-64 -70 0
-65 -66 0
-65 -67 0
-65 -68 0
-65 -69 0
-65 -70 0
-66 -67 0
-66 -68 0
-66 -69 0
-66 -70 0
-67 -68 0
-67 -69 0
-67 -70 0
-68 -69 0
-68 -70 0
-69 -70 0
-71 -72 0
-71 -73 0
-71 -74 0
-71 -75 0
-71 -76 0
-71 -77 0
-72 -73 0
-72 -74 0
-72 -75 0
-72 -76 0
-72 -77 0
-73 -74 0
-73 -75 0
-73 -76 0
-73 -77 0
-74 -75 0
-74 -76 0
-74 -77 0
-75 -76 0
-75 -77 0
-76 -77 0
-78 -79 0
-78 -80 0
-78 -81 0
-78 -82 0
-78 -83 0
-78 -84 0
-79 -80 0
-79 -81 0
-79 -82 0
-79 -83 0
-79 -84 0
-80 -81 0
-80 -82 0
-80 -83 0
-80 -84 0
-81 -82 0
-81 -83 0
-81 -84 0
-82 -83 0
-82 -84 0
-83 -84 0
-85 -86 0
-85 -87 0
-85 -88 0
-85 -89 0
-85 -90 0
-85 -91 0
-86 -87 0
-86 -88 0
-86 -89 0
-86 -90 0
-86 -91 0
-87 -88 0
-87 -89 0
-87 -90 0
-87 -91 0
-88 -89 0
-88 -90 0
-88 -91 0
-89 -90 0
-89 -91 0
-90 -91 0
-92 -93 0
-92 -94 0
-92 -95 0
-92 -96 0
-92 -97 0
-92 -98 0
-93 -94 0
-93 -95 0
-93 -96 0
-93 -97 0
-93 -98 0
-94 -95 0
-94 -96 0
-94 -97 0
-94 -98 0
-95 -96 0
-95 -97 0
-95 -98 0
-96 -97 0
-96 -98 0
-97 -98 0
-99 -100 0
-99 -101 0
-99 -102 0
-99 -103 0
-99 -104 0
-99 -105 0
-100 -101 0
-100 -102 0
-100 -103 0
-100 -104 0
-100 -105 0
-101 -102 0
-101 -103 0
-101 -104 0
-101 -105 0
-102 -103 0
-102 -104 0
-102 -105 0
-103 -104 0
-103 -105 0
-104 -105 0
-106 -107 0
-106 -108 0
-106 -109 0
-106 -110 0
-106 -111 0
-106 -112 0
-107 -108 0
-107 -109 0
-107 -110 0
-107 -111 0
-107 -112 0
-108 -109 0
-108 -110 0
-108 -111 0
-108 -112 0
-109 -110 0
-109 -111 0
-109 -112 0
-110 -111 0
-110 -112 0
-111 -112 0
-113 -114 0
-113 -115 0
-113 -116 0
-113 -117 0
-113 -118 0
-113 -119 0
-114 -115 0
-114 -116 0
-114 -117 0
-114 -118 0
-114 -119 0
-115 -116 0
-115 -117 0
-115 -118 0
-115 -119 0
-116 -117 0
-116 -118 0
-116 -119 0
-117 -118 0
-117 -119 0
-118 -119 0
-120 -121 0
-120 -122 0
-120 -123 0
-120 -124 0
-120 -125 0
-120 -126 0
-121 -122 0
-121 -123 0
-121 -124 0
-121 -125 0
-121 -126 0
-122 -123 0
-122 -124 0
-122 -125 0
-122 -126 0
-123 -124 0
-123 -125 0
-123 -126 0
-124 -125 0
-124 -126 0
-125 -126 0
-127 -128 0
-127 -129 0
-127 -130 0
-127 -131 0
-127 -132 0
-127 -133 0
-128 -129 0
-128 -130 0
-128 -131 0
-128 -132 0
-128 -133 0
-129 -130 0
-129 -131 0
-129 -132 0
-129 -133 0
-130 -131 0
-130 -132 0
-130 -133 0
-131 -132 0
-131 -133 0
-132 -133 0
-134 -135 0
-134 -136 0
-134 -137 0
-134 -138 0
-134 -139 0
-134 -140 0
-135 -136 0
-135 -137 0
-135 -138 0
-135 -139 0
-135 -140 0
-136 -137 0
-136 -138 0
-136 -139 0
-136 -140 0
-137 -138 0
-137 -139 0
-137 -140 0
-138 -139 0
-138 -140 0
-139 -140 0
-141 -142 0
-141 -143 0
-141 -144 0
-141 -145 0
-141 -146 0
-141 -147 0
-142 -143 0
-142 -144 0
-142 -145 0
-142 -146 0
-142 -147 0
-143 -144 0
-143 -145 0
-143 -146 0
-143 -147 0
-144 -145 0
-144 -146 0
-144 -147 0
-145 -146 0
-145 -147 0
-146 -147 0
-148 -149 0
-148 -150 0
-148 -151 0
-148 -152 0
-148 -153 0
-148 -154 0
-149 -150 0
-149 -151 0
-149 -152 0
-149 -153 0
-149 -154 0
-150 -151 0
-150 -152 0
-150 -153 0
-150 -154 0
-151 -152 0
-151 -153 0
-151 -154 0
-152 -153 0
-152 -154 0
-153 -154 0
-155 -156 0
-155 -157 0
-155 -158 0
-155 -159 0
-155 -160 0
-155 -161 0
-156 -157 0
-156 -158 0
-156 -159 0
-156 -160 0
-156 -161 0
-157 -158 0
-157 -159 0
-157 -160 0
-157 -161 0
-158 -159 0
-158 -160 0
-158 -161 0
-159 -160 0
-159 -161 0
-160 -161 0
-162 -163 0
-162 -164 0
-162 -165 0
-162 -166 0
-162 -167 0
-162 -168 0
-163 -164 0
-163 -165 0
-163 -166 0
-163 -167 0
-163 -168 0
-164 -165 0
-164 -166 0
-164 -167 0
-164 -168 0
-165 -166 0
-165 -167 0
-165 -168 0
-166 -167 0
-166 -168 0
-167 -168 0
-169 -170 0
-169 -171 0
-169 -172 0
-169 -173 0
-169 -174 0
-169 -175 0
-170 -171 0
-170 -172 0
-170 -173 0
-170 -174 0
-170 -175 0
-171 -172 0
-171 -173 0
-171 -174 0
-171 -175 0
-172 -173 0
-172 -174 0
-172 -175 0
-173 -174 0
-173 -175 0
-174 -175 0
-176 -177 0
-176 -178 0
-176 -179 0
-176 -180 0
-176 -181 0
-176 -182 0
-177 -178 0
-177 -179 0
-177 -180 0
-177 -181 0
-177 -182 0
-178 -179 0
-178 -180 0
-178 -181 0
-178 -182 0
-179 -180 0
-179 -181 0
-179 -182 0
-180 -181 0
-180 -182 0
-181 -182 0
-183 -184 0
-183 -185 0
-183 -186 0
-183 -187 0
-183 -188 0
-183 -189 0
-184 -185 0
-184 -186 0
-184 -187 0
-184 -188 0
-184 -189 0
-185 -186 0
-185 -187 0
-185 -188 0
-185 -189 0
-186 -187 0
-186 -188 0
-186 -189 0
-187 -188 0
-187 -189 0
-188 -189 0
-190 -191 0
-190 -192 0
-190 -193 0
-190 -194 0
-190 -195 0
-190 -196 0
-191 -192 0
-191 -193 0
-191 -194 0
-191 -195 0
-191 -196 0
-192 -193 0
-192 -194 0
-192 -195 0
-192 -196 0
-193 -194 0
-193 -195 0
-193 -196 0
-194 -195 0
-194 -196 0
-195 -196 0
-197 -198 0
-197 -199 0
-197 -200 0
-197 -201 0
-197 -202 0
-197 -203 0
-198 -199 0
-198 -200 0
-198 -201 0
-198 -202 0
-198 -203 0
-199 -200 0
-199 -201 0
-199 -202 0
-199 -203 0
-200 -201 0
-200 -202 0
-200 -203 0
-201 -202 0
-201 -203 0
-202 -203 0
-204 -205 0
-204 -206 0
-204 -207 0
-204 -208 0
-204 -209 0
-204 -210 0
-205 -206 0
-205 -207 0
-205 -208 0
-205 -209 0
-205 -210 0
-206 -207 0
-206 -208 0
-206 -209 0
-206 -210 0
-207 -208 0
-207 -209 0
-207 -210 0
-208 -209 0
-208 -210 0
-209 -210 0
-4 -106 0
-4 -107 0
-3 -106 0
-6 -110 0
-1 -108 0
-5 -110 0
-1 -106 0
-5 -111 0
-6 -112 0
-3 -107 0
-3 -110 0
-3 -111 0
-1 -110 0
-3 -112 0
-1 -109 0
-7 -110 0
-2 -108 0
-5 -106 0
-4 -108 0
-5 -108 0
-2 -107 0
-6 -109 0
-2 -112 0
-1 -112 0
-3 -109 0
-3 -108 0
-7 -111 0
-2 -106 0
-2 -110 0
-2 -111 0
-6 -111 0
-5 -112 0
-5 -109 0
-7 -107 0
-3 -154 0
-6 -149 0
-7 -151 0
-2 -150 0
-6 -148 0
-6 -150 0
-2 -153 0
-5 -150 0
-6 -154 0
-1 -152 0
-2 -148 0
-4 -149 0
-4 -154 0
-1 -151 0
-1 -149 0
-7 -154 0
-5 -152 0
-1 -148 0
-7 -148 0
-4 -150 0
-3 -152 0
-4 -153 0
-7 -152 0
-2 -149 0
-6 -151 0
-3 -148 0
-7 -149 0
-3 -149 0
-4 -151 0
-5 -154 0
-6 -152 0
-3 -153 0
-2 -152 0
-2 -151 0
-14 -71 0
-13 -72 0
-11 -71 0
-11 -74 0
-13 -71 0
-9 -71 0
-14 -75 0
-11 -72 0
-11 -73 0
-9 -76 0
-12 -71 0
-8 -71 0
-8 -75 0
-9 -77 0
-13 -73 0
-11 -77 0
-11 -76 0
-14 -74 0
-10 -75 0
-11 -75 0
-13 -75 0
-13 -77 0
-9 -75 0
-12 -74 0
-8 -72 0
-10 -77 0
-9 -73 0
-14 -73 0
-12 -76 0
-10 -74 0
-12 -75 0
-14 -72 0
-12 -77 0
-14 -76 0
-13 -79 0
-12 -81 0
-8 -78 0
-14 -81 0
-10 -83 0
-11 -84 0
-9 -82 0
-13 -83 0
-9 -83 0
-11 -82 0
-8 -82 0
-9 -81 0
-11 -83 0
-10 -79 0
-10 -78 0
-14 -82 0
-14 -84 0
-10 -80 0
-8 -83 0
-8 -81 0
-14 -83 0
-8 -80 0
-12 -83 0
-10 -81 0
-8 -79 0
-12 -82 0
-14 -79 0
-13 -80 0
-14 -80 0
-12 -84 0
-13 -84 0
-8 -84 0
-9 -84 0
-10 -82 0
-8 -102 0
-9 -103 0
-9 -101 0
-12 -105 0
-14 -99 0
-9 -102 0
-12 -99 0
-8 -103 0
-14 -100 0
-13 -104 0
-10 -101 0
-9 -104 0
-12 -103 0
-14 -103 0
-11 -99 0
-11 -103 0
-11 -102 0
-13 -101 0
-10 -99 0
-8 -104 0
-13 -105 0
-10 -102 0
-11 -105 0
-14 -101 0
-14 -104 0
-8 -101 0
-11 -100 0
-12 -102 0
-8 -99 0
-12 -100 0
-10 -105 0
-8 -100 0
-11 -104 0
-9 -99 0
-18 -66 0
-19 -66 0
-21 -68 0
-18 -69 0
-15 -70 0
-15 -68 0
-15 -67 0
-17 -65 0
-16 -70 0
-16 -65 0
-16 -64 0
-17 -67 0
-19 -70 0
-20 -70 0
-20 -68 0
-18 -70 0
-19 -64 0
-15 -66 0
-21 -66 0
-18 -67 0
-20 -66 0
-16 -69 0
-19 -67 0
-17 -68 0
-19 -68 0
-21 -64 0
-16 -68 0
-15 -69 0
-21 -65 0
-18 -68 0
-20 -67 0
-19 -65 0
-17 -69 0
-20 -65 0
-19 -190 0
-16 -194 0
-17 -192 0
-18 -195 0
-18 -192 0
-15 -193 0
-21 -192 0
-16 -195 0
-18 -190 0
-15 -195 0
-20 -192 0
-17 -190 0
-19 -194 0
-19 -195 0
-17 -196 0
-17 -195 0
-17 -193 0
-19 -196 0
-15 -196 0
-20 -194 0
-16 -193 0
-17 -194 0
-15 -191 0
-16 -191 0
-19 -191 0
-17 -191 0
-20 -196 0
-20 -190 0
-16 -192 0
-20 -193 0
-21 -191 0
-18 -193 0
-16 -196 0
-15 -190 0
-25 -75 0
-22 -76 0
-28 -77 0
-26 -72 0
-23 -77 0
-24 -75 0
-28 -75 0
-26 -75 0
-25 -76 0
-27 -71 0
-27 -72 0
-22 -73 0
-24 -72 0
-28 -72 0
-23 -72 0
-22 -74 0
-22 -75 0
-26 -77 0
-26 -76 0
-25 -72 0
-27 -73 0
-28 -76 0
-25 -74 0
-26 -74 0
-26 -73 0
-22 -71 0
-28 -73 0
-23 -76 0
-23 -71 0
-28 -74 0
-24 -77 0
-25 -73 0
-27 -75 0
-27 -76 0
-25 -169 0
-26 -174 0
-27 -169 0
-26 -173 0
-27 -173 0
-24 -169 0
-27 -174 0
-28 -171 0
-23 -175 0
-24 -175 0
-28 -170 0
-23 -170 0
-23 -171 0
-26 -169 0
-24 -172 0
-22 -171 0
-22 -172 0
-23 -172 0
-28 -173 0
-28 -169 0
-24 -173 0
-27 -171 0
-28 -175 0
-25 -170 0
-28 -174 0
-22 -174 0
-25 -172 0
-26 -175 0
-23 -173 0
-23 -169 0
-28 -172 0
-22 -170 0
-25 -175 0
-24 -170 0
-24 -183 0
-25 -188 0
-22 -186 0
-27 -189 0
-24 -189 0
-25 -187 0
-24 -188 0
-22 -187 0
-27 -187 0
-23 -186 0
-25 -189 0
-22 -183 0
-24 -186 0
-28 -183 0
-28 -185 0
-22 -185 0
-24 -184 0
-23 -183 0
-26 -189 0
-27 -185 0
-28 -189 0
-22 -184 0
-26 -183 0
-28 -188 0
-25 -186 0
-26 -187 0
-28 -186 0
-23 -187 0
-23 -189 0
-25 -184 0
-25 -185 0
-24 -187 0
-27 -184 0
-27 -188 0
-29 -118 0
-30 -116 0
-29 -113 0
-35 -115 0
-32 -115 0
-34 -119 0
-33 -114 0
-30 -119 0
-34 -113 0
-31 -114 0
-32 -113 0
-31 -113 0
-32 -114 0
-29 -116 0
-32 -119 0
-29 -115 0
-32 -117 0
-30 -114 0
-29 -119 0
-32 -118 0
-29 -114 0
-35 -114 0
-32 -116 0
-31 -119 0
-34 -118 0
-35 -113 0
-29 -117 0
-31 -117 0
-35 -119 0
-30 -117 0
-34 -116 0
-33 -116 0
-31 -116 0
-35 -116 0
-29 -145 0
-35 -147 0
-29 -143 0
-35 -141 0
-32 -144 0
-30 -143 0
-32 -142 0
-35 -143 0
-34 -144 0
-34 -143 0
-33 -142 0
-31 -145 0
-34 -142 0
-31 -142 0
-29 -144 0
-29 -146 0
-34 -145 0
-34 -146 0
-35 -146 0
-32 -146 0
-30 -144 0
-31 -147 0
-35 -145 0
-34 -141 0
-31 -146 0
-30 -141 0
-35 -142 0
-32 -147 0
-30 -142 0
-29 -141 0
-32 -143 0
-29 -142 0
-30 -147 0
-35 -144 0
-38 -60 0
-37 -57 0
-40 -61 0
-36 -58 0
-37 -63 0
-37 -60 0
-40 -58 0
-41 -60 0
-42 -62 0
-36 -57 0
-39 -61 0
-41 -58 0
-42 -57 0
-41 -61 0
-38 -62 0
-38 -63 0
-40 -59 0
-42 -63 0
-37 -59 0
-41 -57 0
-39 -63 0
-42 -61 0
-39 -59 0
-38 -59 0
-42 -58 0
-42 -59 0
-37 -58 0
-39 -58 0
-36 -62 0
-36 -63 0
-38 -58 0
-36 -59 0
-37 -62 0
-40 -63 0
-42 -72 0
-41 -74 0
-40 -77 0
-37 -73 0
-40 -74 0
-39 -76 0
-36 -74 0
-38 -71 0
-39 -75 0
-37 -71 0
-41 -73 0
-42 -74 0
-40 -71 0
-36 -77 0
-41 -77 0
-37 -72 0
-42 -71 0
-39 -74 0
-38 -76 0
-38 -74 0
-38 -73 0
-38 -72 0
-39 -72 0
-40 -72 0
-41 -72 0
-40 -76 0
-37 -74 0
-37 -77 0
-37 -75 0
-42 -73 0
-38 -75 0
-37 -76 0
-36 -75 0
-40 -75 0
-40 -92 0
-40 -94 0
-42 -94 0
-40 -96 0
-39 -93 0
-37 -97 0
-40 -93 0
-41 -95 0
-38 -94 0
-40 -97 0
-42 -97 0
-40 -95 0
-42 -96 0
-39 -95 0
-39 -94 0
-36 -94 0
-42 -95 0
-38 -96 0
-37 -98 0
-39 -97 0
-39 -96 0
-42 -93 0
-36 -95 0
-36 -96 0
-38 -97 0
-37 -93 0
-41 -97 0
-41 -96 0
-37 -96 0
-38 -93 0
-38 -92 0
-38 -95 0
-37 -94 0
-41 -92 0
-46 -110 0
-48 -108 0
-47 -109 0
-46 -112 0
-43 -111 0
-48 -111 0
-46 -111 0
-45 -107 0
-46 -106 0
-45 -112 0
-45 -110 0
-49 -107 0
-44 -112 0
-43 -109 0
-48 -106 0
-45 -108 0
-49 -111 0
-49 -110 0
-44 -107 0
-46 -107 0
-45 -106 0
-43 -110 0
-49 -106 0
-43 -108 0
-43 -107 0
-49 -108 0
-43 -106 0
-48 -112 0
-49 -109 0
-45 -109 0
-48 -109 0
-44 -110 0
-47 -108 0
-49 -112 0
-52 -184 0
-50 -183 0
-52 -189 0
-55 -189 0
-52 -186 0
-54 -186 0
-55 -185 0
-56 -185 0
-55 -188 0
-53 -188 0
-50 -185 0
-50 -187 0
-52 -185 0
-53 -189 0
-54 -188 0
-54 -189 0
-53 -183 0
-51 -187 0
-53 -185 0
-52 -187 0
-51 -185 0
-53 -187 0
-56 -184 0
-54 -184 0
-51 -188 0
-55 -183 0
-54 -185 0
-56 -188 0
-54 -187 0
-50 -188 0
-53 -186 0
-56 -187 0
-51 -189 0
-50 -189 0
-60 -143 0
-57 -145 0
-61 -145 0
-59 -143 0
-62 -142 0
-57 -142 0
-63 -142 0
-60 -141 0
-61 -146 0
-63 -144 0
-57 -147 0
-60 -142 0
-62 -141 0
-62 -146 0
-60 -147 0
-63 -143 0
-63 -145 0
-58 -145 0
-58 -147 0
-60 -146 0
-57 -144 0
-58 -144 0
-59 -145 0
-62 -145 0
-63 -146 0
-60 -145 0
-58 -146 0
-61 -147 0
-62 -144 0
-57 -146 0
-58 -141 0
-61 -144 0
-59 -144 0
-62 -147 0
-67 -92 0
-66 -96 0
-66 -92 0
-65 -98 0
-68 -98 0
-64 -96 0
-67 -94 0
-65 -97 0
-64 -98 0
-64 -93 0
-66 -98 0
-70 -95 0
-70 -92 0
-70 -96 0
-69 -97 0
-70 -93 0
-67 -95 0
-66 -95 0
-65 -95 0
-65 -92 0
-70 -98 0
-68 -96 0
-69 -93 0
-68 -92 0
-64 -92 0
-69 -98 0
-67 -93 0
-64 -94 0
-66 -97 0
-68 -97 0
-67 -97 0
-68 -93 0
-69 -94 0
-64 -97 0
-66 -135 0
-67 -137 0
-64 -135 0
-67 -135 0
-68 -136 0
-69 -139 0
-64 -137 0
-66 -136 0
-64 -139 0
-68 -135 0
-64 -140 0
-69 -136 0
-70 -134 0
-68 -137 0
-68 -134 0
-68 -139 0
-69 -140 0
-65 -136 0
-69 -134 0
-66 -137 0
-70 -136 0
-70 -140 0
-68 -138 0
-70 -139 0
-66 -140 0
-67 -136 0
-64 -134 0
-67 -138 0
-65 -135 0
-67 -140 0
-69 -135 0
-66 -139 0
-67 -139 0
-65 -138 0
-74 -173 0
-74 -171 0
-77 -174 0
-71 -172 0
-71 -175 0
-71 -169 0
-71 -170 0
-75 -170 0
-74 -169 0
-76 -169 0
-77 -175 0
-73 -171 0
-76 -173 0
-73 -170 0
-71 -174 0
-75 -171 0
-75 -174 0
-73 -174 0
-71 -173 0
-73 -173 0
-75 -169 0
-76 -174 0
-72 -171 0
-77 -173 0
-77 -171 0
-76 -170 0
-72 -169 0
-72 -173 0
-76 -172 0
-76 -175 0
-74 -170 0
-72 -172 0
-74 -175 0
-73 -169 0
-80 -149 0
-84 -148 0
-81 -153 0
-79 -150 0
-80 -151 0
-84 -152 0
-80 -153 0
-78 -148 0
-78 -152 0
-83 -154 0
-83 -150 0
-80 -150 0
-83 -151 0
-83 -152 0
-84 -153 0
-79 -152 0
-84 -150 0
-78 -151 0
-79 -148 0
-79 -149 0
-78 -149 0
-82 -153 0
-81 -151 0
-79 -151 0
-80 -154 0
-81 -152 0
-81 -149 0
-82 -148 0
-80 -148 0
-84 -151 0
-79 -154 0
-81 -154 0
-78 -153 0
-79 -153 0
-81 -161 0
-83 -161 0
-79 -159 0
-79 -161 0
-81 -160 0
-83 -158 0
-79 -160 0
-78 -160 0
-78 -157 0
-84 -156 0
-84 -158 0
-78 -155 0
-84 -161 0
-79 -155 0
-78 -159 0
-82 -161 0
-80 -155 0
-84 -160 0
-80 -161 0
-82 -159 0
-79 -156 0
-80 -156 0
-81 -155 0
-83 -159 0
-83 -156 0
-80 -159 0
-80 -158 0
-80 -157 0
-81 -157 0
-82 -156 0
-83 -155 0
-80 -160 0
-78 -161 0
-81 -158 0
-83 -164 0
-81 -164 0
-78 -162 0
-84 -164 0
-78 -166 0
-82 -163 0
-81 -167 0
-83 -168 0
-79 -165 0
-81 -162 0
-79 -163 0
-80 -163 0
-84 -163 0
-80 -167 0
-78 -168 0
-84 -168 0
-81 -168 0
-78 -165 0
-81 -165 0
-80 -166 0
-83 -167 0
-82 -167 0
-84 -162 0
-79 -166 0
-79 -164 0
-82 -164 0
-78 -167 0
-80 -162 0
-80 -164 0
-82 -168 0
-82 -162 0
-78 -163 0
-84 -166 0
-81 -163 0
-88 -153 0
-86 -149 0
-86 -150 0
-90 -149 0
-85 -151 0
-91 -152 0
-87 -153 0
-87 -154 0
-85 -152 0
-88 -151 0
-85 -154 0
-89 -150 0
-87 -149 0
-87 -152 0
-89 -154 0
-87 -151 0
-88 -150 0
-87 -148 0
-86 -153 0
-86 -154 0
-88 -148 0
-87 -150 0
-91 -150 0
-90 -150 0
-85 -149 0
-90 -153 0
-89 -148 0
-90 -154 0
-86 -151 0
-88 -154 0
-91 -153 0
-85 -148 0
-90 -152 0
-86 -148 0
-86 -183 0
-86 -185 0
-91 -187 0
-90 -189 0
-89 -187 0
-89 -183 0
-90 -184 0
-87 -187 0
-85 -184 0
-87 -184 0
-91 -188 0
-86 -187 0
-90 -186 0
-87 -183 0
-89 -188 0
-87 -186 0
-85 -187 0
-86 -184 0
-89 -184 0
-85 -186 0
-85 -189 0
-88 -187 0
-90 -188 0
-89 -189 0
-87 -188 0
-91 -184 0
-88 -183 0
-87 -185 0
-88 -184 0
-88 -188 0
-88 -189 0
-91 -189 0
-86 -188 0
-89 -185 0
-93 -114 0
-98 -115 0
-95 -117 0
-95 -116 0
-94 -114 0
-92 -118 0
-93 -118 0
-93 -116 0
-93 -113 0
-96 -115 0
-95 -114 0
-94 -113 0
-92 -114 0
-97 -118 0
-94 -119 0
-97 -115 0
-93 -115 0
-94 -118 0
-92 -119 0
-98 -114 0
-95 -119 0
-94 -116 0
-98 -119 0
-95 -118 0
-95 -115 0
-92 -115 0
-92 -117 0
-95 -113 0
-92 -116 0
-98 -116 0
-98 -113 0
-97 -113 0
-98 -117 0
-93 -117 0
-95 -131 0
-96 -129 0
-95 -130 0
-94 -133 0
-93 -127 0
-97 -132 0
-98 -128 0
-92 -133 0
-94 -131 0
-96 -131 0
-97 -131 0
-94 -130 0
-93 -129 0
-96 -132 0
-95 -127 0
-92 -128 0
-96 -133 0
-94 -127 0
-97 -129 0
-92 -131 0
-94 -132 0
-93 -130 0
-98 -127 0
-92 -132 0
-98 -129 0
-95 -128 0
-94 -128 0
-93 -128 0
-96 -128 0
-93 -133 0
-98 -133 0
-96 -130 0
-92 -127 0
-92 -129 0
-98 -150 0
-95 -150 0
-95 -149 0
-95 -148 0
-94 -152 0
-94 -154 0
-96 -151 0
-92 -149 0
-97 -151 0
-92 -152 0
-92 -151 0
-92 -153 0
-94 -148 0
-94 -153 0
-92 -148 0
-93 -154 0
-98 -154 0
-97 -153 0
-97 -148 0
-96 -149 0
-95 -153 0
-92 -150 0
-94 -151 0
-96 -148 0
-93 -152 0
-94 -150 0
-97 -152 0
-96 -152 0
-97 -149 0
-93 -151 0
-98 -151 0
-93 -148 0
-95 -151 0
-93 -153 0
-94 -178 0
-93 -177 0
-94 -181 0
-93 -180 0
-92 -180 0
-93 -179 0
-97 -178 0
-94 -177 0
-97 -179 0
-93 -182 0
-97 -177 0
-95 -176 0
-98 -178 0
-97 -176 0
-96 -176 0
-96 -182 0
-95 -179 0
-98 -176 0
-95 -182 0
-92 -178 0
-94 -182 0
-96 -178 0
-96 -179 0
-92 -182 0
-92 -176 0
-98 -180 0
-95 -181 0
-95 -180 0
-97 -181 0
-98 -182 0
-92 -177 0
-94 -179 0
-97 -182 0
-93 -178 0
-99 -160 0
-100 -160 0
-105 -159 0
-102 -156 0
-104 -156 0
-104 -155 0
-101 -160 0
-102 -155 0
-105 -156 0
-102 -160 0
-104 -160 0
-103 -159 0
-103 -157 0
-102 -158 0
-99 -155 0
-105 -155 0
-101 -161 0
-101 -157 0
-102 -157 0
-101 -156 0
-100 -155 0
-99 -156 0
-99 -157 0
-101 -159 0
-104 -161 0
-103 -156 0
-104 -158 0
-102 -161 0
-102 -159 0
-103 -155 0
-105 -158 0
-105 -157 0
-105 -160 0
-103 -158 0
-112 -135 0
-111 -136 0
-111 -134 0
-109 -140 0
-108 -136 0
-110 -138 0
-106 -134 0
-111 -140 0
-108 -135 0
-110 -139 0
-106 -136 0
-108 -138 0
-110 -135 0
-107 -137 0
-106 -138 0
-110 -136 0
-109 -137 0
-111 -138 0
-106 -140 0
-107 -136 0
-107 -139 0
-108 -139 0
-112 -136 0
-107 -140 0
-107 -134 0
-109 -136 0
-108 -140 0
-110 -137 0
-110 -140 0
-111 -137 0
-108 -134 0
-106 -137 0
-109 -139 0
-112 -140 0
-111 -182 0
-111 -177 0
-112 -181 0
-106 -180 0
-106 -179 0
-106 -182 0
-110 -181 0
-106 -181 0
-109 -181 0
-108 -178 0
-111 -176 0
-112 -177 0
-106 -178 0
-110 -179 0
-111 -178 0
-112 -179 0
-109 -176 0
-108 -176 0
-108 -179 0
-109 -180 0
-109 -182 0
-110 -176 0
-107 -177 0
-110 -177 0
-111 -181 0
-109 -177 0
-111 -180 0
-110 -178 0
-106 -176 0
-106 -177 0
-112 -182 0
-108 -182 0
-108 -177 0
-110 -180 0
-118 -159 0
-113 -156 0
-115 -157 0
-114 -157 0
-117 -158 0
-119 -161 0
-119 -157 0
-114 -155 0
-115 -158 0
-116 -156 0
-114 -161 0
-118 -161 0
-115 -160 0
-113 -155 0
-114 -159 0
-119 -159 0
-116 -159 0
-117 -160 0
-113 -160 0
-116 -160 0
-116 -158 0
-119 -160 0
-118 -158 0
-113 -159 0
-118 -160 0
-117 -156 0
-117 -159 0
-115 -159 0
-114 -160 0
-118 -156 0
-117 -155 0
-116 -157 0
-115 -156 0
-114 -156 0
-118 -195 0
-116 -194 0
-117 -192 0
-119 -191 0
-115 -191 0
-119 -190 0
-113 -195 0
-113 -193 0
-114 -193 0
-114 -195 0
-118 -191 0
-114 -190 0
-115 -190 0
-116 -196 0
-116 -195 0
-113 -196 0
-115 -193 0
-117 -194 0
-117 -191 0
-118 -193 0
-116 -190 0
-119 -193 0
-116 -193 0
-113 -191 0
-113 -190 0
-118 -196 0
-119 -192 0
-113 -192 0
-114 -191 0
-114 -196 0
-117 -196 0
-117 -190 0
-118 -194 0
-116 -191 0
-122 -147 0
-123 -141 0
-123 -147 0
-120 -141 0
-124 -141 0
-125 -144 0
-126 -141 0
-120 -145 0
-125 -145 0
-121 -146 0
-126 -144 0
-123 -145 0
-121 -145 0
-121 -142 0
-126 -142 0
-125 -147 0
-123 -143 0
-120 -142 0
-125 -143 0
-125 -146 0
-126 -146 0
-126 -147 0
-120 -147 0
-120 -146 0
-122 -141 0
-124 -143 0
-121 -141 0
-121 -147 0
-122 -142 0
-123 -146 0
-124 -146 0
-125 -141 0
-122 -146 0
-124 -147 0
-132 -134 0
-128 -137 0
-130 -135 0
-128 -135 0
-133 -135 0
-130 -140 0
-130 -136 0
-128 -139 0
-131 -135 0
-132 -135 0
-132 -138 0
-130 -134 0
-130 -138 0
-129 -139 0
-133 -136 0
-129 -134 0
-128 -136 0
-127 -138 0
-129 -138 0
-131 -140 0
-131 -134 0
-132 -140 0
-130 -137 0
-129 -135 0
-127 -134 0
-127 -139 0
-127 -140 0
-129 -136 0
-133 -134 0
-133 -140 0
-131 -138 0
-133 -137 0
-127 -137 0
-132 -136 0
-129 -171 0
-131 -175 0
-133 -174 0
-129 -174 0
-133 -169 0
-132 -171 0
-128 -171 0
-130 -170 0
-129 -169 0
-128 -172 0
-133 -170 0
-131 -169 0
-128 -169 0
-131 -173 0
-127 -170 0
-127 -169 0
-131 -170 0
-130 -171 0
-127 -175 0
-128 -175 0
-132 -175 0
-133 -171 0
-131 -172 0
-130 -173 0
-129 -173 0
-131 -174 0
-129 -175 0
-130 -174 0
-133 -173 0
-132 -169 0
-130 -172 0
-132 -170 0
-128 -173 0
-130 -169 0
-136 -203 0
-138 -199 0
-136 -200 0
-140 -200 0
-138 -197 0
-134 -197 0
-135 -201 0
-137 -197 0
-136 -202 0
-137 -198 0
-138 -198 0
-140 -199 0
-137 -200 0
-138 -200 0
-137 -201 0
-135 -202 0
-137 -199 0
-139 -203 0
-139 -197 0
-140 -201 0
-134 -202 0
-140 -203 0
-136 -197 0
-138 -202 0
-136 -198 0
-139 -199 0
-139 -202 0
-139 -200 0
-138 -203 0
-134 -201 0
-136 -201 0
-135 -198 0
-134 -203 0
-134 -198 0
-141 -193 0
-145 -193 0
-145 -196 0
-144 -194 0
-144 -195 0
-147 -195 0
-144 -196 0
-144 -193 0
-147 -192 0
-141 -192 0
-146 -194 0
-142 -192 0
-146 -196 0
-147 -191 0
-143 -194 0
-147 -194 0
-144 -192 0
-146 -192 0
-146 -193 0
-146 -191 0
-145 -195 0
-142 -196 0
-142 -194 0
-144 -191 0
-144 -190 0
-146 -195 0
-141 -196 0
-147 -193 0
-141 -194 0
-146 -190 0
-143 -195 0
-142 -190 0
-141 -195 0
-147 -190 0
-163 -179 0
-166 -181 0
-164 -182 0
-167 -181 0
-168 -177 0
-166 -179 0
-163 -182 0
-167 -182 0
-168 -181 0
-163 -180 0
-165 -182 0
-166 -177 0
-162 -178 0
-168 -178 0
-163 -181 0
-163 -178 0
-166 -180 0
-166 -176 0
-162 -176 0
-164 -177 0
-164 -176 0
-162 -179 0
-165 -177 0
-163 -177 0
-167 -178 0
-168 -176 0
-168 -180 0
-168 -179 0
-162 -181 0
-165 -179 0
-162 -180 0
-167 -180 0
-164 -178 0
-167 -177 0
-167 -204 0
-168 -207 0
-165 -204 0
-163 -205 0
-165 -208 0
-162 -204 0
-168 -208 0
-168 -204 0
-162 -210 0
-165 -205 0
-166 -206 0
-165 -210 0
-165 -209 0
-167 -209 0
-166 -207 0
-167 -206 0
-167 -207 0
-168 -206 0
-165 -206 0
-162 -205 0
-166 -204 0
-164 -205 0
-162 -206 0
-167 -205 0
-164 -204 0
-163 -208 0
-164 -207 0
-166 -209 0
-167 -210 0
-164 -208 0
-168 -209 0
-166 -205 0
-166 -210 0
-165 -207 0
-175 -210 0
-171 -210 0
-171 -207 0
-169 -209 0
-169 -205 0
-174 -209 0
-174 -210 0
-172 -204 0
-169 -207 0
-171 -204 0
-172 -208 0
-173 -209 0
-175 -204 0
-173 -207 0
-171 -208 0
-173 -204 0
-173 -205 0
-169 -210 0
-175 -207 0
-170 -205 0
-174 -205 0
-175 -209 0
-172 -207 0
-174 -207 0
-173 -208 0
-169 -208 0
-173 -206 0
-174 -204 0
-172 -206 0
-174 -206 0
-172 -205 0
-174 -208 0
-170 -207 0
-170 -209 0
